Na88 Sn16 P8 S96
1.0
    13.4813327813    0.0000000000    0.0000000000
    0.0000000000    13.4813327813    0.0000000000
    0.0000000000    0.0000000000    26.9626655626
Na Sn P S
88 16 8 96
Direct
   0.0493302444   0.9908682605   0.1291202709 Na
   0.5058586372   0.5429567242   0.6243200709 Na
   0.4886196848   0.5036984358   0.8797239402 Na
   0.9900196282   0.9857029467   0.3716088892 Na
   0.2958778102   0.9767647690   0.8727261144 Na
   0.9877578682   0.4911288190   0.3739619017 Na
   0.9811117413   0.4386530283   0.1222462618 Na
   0.2439810348   0.2221059321   0.1519596769 Na
   0.7751037213   0.9444988021   0.6271109844 Na
   0.7544873600   0.2609255180   0.8670897967 Na
   0.7608595935   0.7404968494   0.3918132144 Na
   0.2785163501   0.2319175495   0.8853334182 Na
   0.7735759000   0.2291590222   0.1180176536 Na
   0.2576803763   0.7837910945   0.6184388576 Na
   0.0286977935   0.0277016925   0.8638895317 Na
   0.2606050664   0.4964347595   0.3714908122 Na
   0.9935779563   0.0206943153   0.6366018269 Na
   0.0268640439   0.5033663197   0.6258712188 Na
   0.5395106466   0.9914123599   0.1148841678 Na
   0.9928791382   0.5370231539   0.8852112320 Na
   0.4842144642   0.0063073343   0.3864809223 Na
   0.2519744809   0.2584829687   0.3631460895 Na
   0.7870516953   0.7657783785   0.8600899039 Na
   0.7764264726   0.2438979370   0.6169025555 Na
   0.2847602422   0.7196350679   0.1354453927 Na
   0.2288916753   0.2776253294   0.6229485341 Na
   0.7850623855   0.6573581069   0.1154269318 Na
   0.7291991734   0.2507574768   0.3650076416 Na
   0.5025710160   0.7565294013   0.5037156633 Na
   0.5061007122   0.2383473943   0.9876799271 Na
   0.9945345148   0.4968379601   0.4977872888 Na
   0.5147114130   0.7439206362   0.7343722306 Na
   0.9980643106   0.7211768803   0.2630709792 Na
   0.4791657507   0.2645897292   0.7619714230 Na
   0.0109496777   0.0266014573   0.9924838800 Na
   0.5089108998   0.3062464806   0.4930459086 Na
   0.4924653442   0.7393460261   0.0132382096 Na
   0.4745397260   0.2374574965   0.2622353593 Na
   0.0111523992   0.7236747840   0.7587104467 Na
   0.5046496263   0.7326711528   0.2216511356 Na
   0.0224127431   0.9698154453   0.2498951294 Na
   0.4899590683   0.5052622022   0.7514693548 Na
   0.5013085169   0.9880619203   0.7798381628 Na
   0.9730856364   0.4552447579   0.2614324781 Na
   0.2491722110   0.2163274804   0.0160030035 Na
   0.7645475479   0.7332236511   0.5281126511 Na
   0.0095612835   0.7212058290   0.4841129068 Na
   0.7583072788   0.2574376805   0.9986922799 Na
   0.9904520744   0.0574933577   0.7549671613 Na
   0.4876896390   0.4944272524   0.2727964320 Na
   0.0074476780   0.3533739188   0.7545320162 Na
   0.5318643764   0.9869419436   0.2530409255 Na
   0.2882518919   0.2522223202   0.5137716142 Na
   0.7409504870   0.7708296183   0.9778447387 Na
   0.7484886293   0.2399084870   0.5032767815 Na
   0.1851497567   0.7262896314   0.0187280360 Na
   0.0015724474   0.3251119876   0.9903254393 Na
   0.4957782097   0.5265841911   0.4866585363 Na
   0.4962116874   0.4763103531   0.0011818867 Na
   0.9905143866   0.9838907614   0.5064419215 Na
   0.5170515912   0.9833610505   0.9846952813 Na
   0.0232227859   0.2205807398   0.4909267485 Na
   0.9650730050   0.6186226774   0.0156797857 Na
   0.5106628613   0.0046294402   0.5028221216 Na
   0.0530022693   0.2217873159   0.2470687312 Na
   0.7845470641   0.7784801508   0.7380337695 Na
   0.2642905815   0.7330793398   0.2657405194 Na
   0.7341399803   0.2903038656   0.7358561385 Na
   0.7196117066   0.7284048038   0.2664076753 Na
   0.2408680948   0.2948408566   0.7545843193 Na
   0.7767721286   0.2158121183   0.2452875995 Na
   0.2349677229   0.7864533819   0.7459821692 Na
   0.2837784893   0.4745836480   0.1344886990 Na
   0.5232712566   0.0277945454   0.6332692864 Na
   0.7209180878   0.0217424620   0.8728439829 Na
   0.2227517459   0.7707684406   0.3891121474 Na
   0.2501190221   0.4777151961   0.8889803481 Na
   0.7248729970   0.9614095354   0.3648225156 Na
   0.8004488490   0.9301679893   0.1092692098 Na
   0.2680553167   0.5247850870   0.6230708312 Na
   0.7493463664   0.5219050038   0.8761851032 Na
   0.2571008320   0.9987643081   0.3788969857 Na
   0.7585198739   0.5344333140   0.6248045904 Na
   0.2885643552   0.9776819854   0.1337616227 Na
   0.2464509289   0.0018263073   0.6239961045 Na
   0.5439675390   0.4768233911   0.1333210147 Na
   0.2837485085   0.7378776697   0.8852660510 Na
   0.6959683773   0.5182448282   0.3656852395 Na
   0.2666168262   0.9725895426   0.2567794619 Sn
   0.7676585605   0.5241235356   0.7514009424 Sn
   0.2639172810   0.0278555680   0.7477814086 Sn
   0.7411394291   0.4744651199   0.2414374283 Sn
   0.2734052698   0.9695266349   0.0045023467 Sn
   0.7435043001   0.4665377974   0.4981730704 Sn
   0.2568820841   0.9966527607   0.5036005244 Sn
   0.7391691473   0.5145322347   0.9930690717 Sn
   0.7450153471   0.0259629901   0.7483492794 Sn
   0.2177246075   0.4763334864   0.2507203022 Sn
   0.2578187151   0.5343055486   0.7497841328 Sn
   0.7639621245   0.9746292093   0.2466860578 Sn
   0.2435254917   0.5184038197   0.4939259302 Sn
   0.7686655249   0.0229532642   0.9883793396 Sn
   0.7432499245   0.9981103761   0.4994729864 Sn
   0.2413478470   0.4824014475   0.0140937429 Sn
   0.0048126152   0.2349415101   0.3717407074 P
   0.5272487829   0.7543512058   0.8662497490 P
   0.5025547228   0.2871153479   0.6235021060 P
   0.0248307844   0.7166207521   0.1345844121 P
   0.0016556027   0.2668744112   0.8785825149 P
   0.4959183597   0.7405723475   0.3774600581 P
   0.0059244425   0.7660932633   0.6217582847 P
   0.5141093621   0.2346722819   0.1209915506 P
   0.1644934693   0.3634118575   0.0670488381 S
   0.6367379038   0.9024685439   0.5555810337 S
   0.6659958549   0.1376130484   0.9446936681 S
   0.1233624103   0.5955935697   0.4346376289 S
   0.3517339007   0.3732265814   0.9516359996 S
   0.8449555287   0.8681256059   0.4606895708 S
   0.8697653883   0.1238714257   0.0456010372 S
   0.3355619718   0.6457840999   0.5405600635 S
   0.8755830902   0.0692843898   0.1948110319 S
   0.3689671504   0.6140094487   0.6953101308 S
   0.8637556951   0.8732719639   0.3038461521 S
   0.3506159767   0.4384728314   0.8061734219 S
   0.1271127037   0.5882563381   0.3080601146 S
   0.6424838208   0.1250155603   0.7945347872 S
   0.1314178684   0.3720040714   0.1980032203 S
   0.6480823724   0.9132001409   0.7013505672 S
   0.8375914345   0.6337302563   0.9426678239 S
   0.3508415148   0.1177797903   0.4479012434 S
   0.8482343853   0.3797076355   0.5529694193 S
   0.3746501303   0.8762717079   0.0574567433 S
   0.1517110535   0.1144322480   0.5523814488 S
   0.6332312416   0.6103462498   0.0482197079 S
   0.1794844363   0.8733991271   0.9493753992 S
   0.6437703351   0.3831709080   0.4454114843 S
   0.6412898198   0.3685188867   0.2861522191 S
   0.1477825259   0.9375400073   0.8054062881 S
   0.1449523165   0.1203415856   0.6978513672 S
   0.6273082396   0.5861925092   0.2017470732 S
   0.8575010836   0.4205461199   0.6931619785 S
   0.3787829543   0.8809271425   0.2055639139 S
   0.3647550314   0.0785876476   0.3051538126 S
   0.8732646978   0.6129451548   0.8036928878 S
   0.1603602151   0.0601200677   0.0609205084 S
   0.6505344582   0.5888227176   0.5446964165 S
   0.6367821035   0.4150950743   0.9451915511 S
   0.1439822375   0.9085946621   0.4471318220 S
   0.3555635985   0.0891897832   0.9588706479 S
   0.8406504994   0.5627616893   0.4415097140 S
   0.8704628584   0.4412109293   0.0409512225 S
   0.3731797725   0.9362244043   0.5558162812 S
   0.1692157970   0.0620426085   0.1992859384 S
   0.6703577866   0.6245737222   0.6909973473 S
   0.1550808972   0.8695409921   0.3079340941 S
   0.6648201730   0.4185743440   0.8015220954 S
   0.8360195876   0.5704738879   0.3046545809 S
   0.3553108857   0.1316971477   0.8016164054 S
   0.8508313582   0.3647126852   0.1963244782 S
   0.3643192429   0.9130719235   0.7012089934 S
   0.8632811374   0.9384671537   0.9286568177 S
   0.3385977797   0.4065630289   0.4470480179 S
   0.8442984769   0.0873459951   0.5525650191 S
   0.3633222764   0.5892112065   0.0545891730 S
   0.1358891709   0.4325478168   0.5507028226 S
   0.6645911586   0.9133779428   0.0342873162 S
   0.1288782557   0.5577970256   0.9597761605 S
   0.6456663298   0.1001467539   0.4460044823 S
   0.3343468841   0.3793964679   0.3011652720 S
   0.8530944204   0.9301109164   0.8040333280 S
   0.8458393138   0.1387222482   0.6958216199 S
   0.3416987129   0.5891807431   0.2110878222 S
   0.1503508529   0.4343390328   0.6981562052 S
   0.6699977609   0.8731666200   0.1926776490 S
   0.6636295119   0.0890461119   0.2967006126 S
   0.1820542686   0.6410507410   0.8080249434 S
   0.0894203595   0.1366674621   0.3316434465 S
   0.6059678907   0.6742761293   0.8125298382 S
   0.5856719454   0.3775543800   0.6644935949 S
   0.1199478737   0.8099785895   0.1723518112 S
   0.4148157308   0.2024821837   0.6694340077 S
   0.9245531739   0.6560451606   0.1832063894 S
   0.9121704749   0.3066428382   0.3231528130 S
   0.4267728408   0.8357625980   0.8299991505 S
   0.0675993975   0.1820900004   0.9295811406 S
   0.5851867996   0.6561813765   0.4223239193 S
   0.0801271101   0.8668296845   0.5761805052 S
   0.5829268247   0.3232148547   0.0682208929 S
   0.9345772371   0.6692072541   0.5730174573 S
   0.4180013267   0.1411293024   0.0811627074 S
   0.9065016523   0.3685418891   0.9146989307 S
   0.4130773190   0.8368160066   0.4203452369 S
   0.9109395161   0.8426571148   0.6715324747 S
   0.4298465352   0.3291070569   0.1646545381 S
   0.9203782509   0.1978933558   0.8254049629 S
   0.4192744072   0.6709779516   0.3215074719 S
   0.1225781558   0.3295145647   0.8448182524 S
   0.5882664677   0.8380440530   0.3352395528 S
   0.0917445852   0.6716540640   0.6695387912 S
   0.6119736626   0.1464233762   0.1619624959 S
   0.4043374578   0.3782738972   0.5825533589 S
   0.9477599600   0.7890364113   0.0823174563 S
   0.9223741125   0.1520189443   0.4240855009 S
   0.4559721331   0.6658835019   0.9161375016 S
   0.0935245274   0.3347895057   0.4055737537 S
   0.6162172823   0.8419894469   0.9094057280 S
   0.5860607494   0.2058186146   0.5761344941 S
   0.1117170424   0.6115202953   0.1066713332 S
